(declare-const c_0 Real)
(declare-const c_1 Real)
(declare-const c_2 Real)
(declare-const c_3 Real)
(declare-const s_0 Real)
(declare-const s_1 Real)
(declare-const s_2 Real)
(declare-const s_3 Real)
(assert (forall ((x Real) ) (=> (and (>= (+ (* 1024 1) (* 1 x ) ) 0) (>= (+ (* 1023 1) (* (- 1) x ) ) 0) ) (>= (+ (* 1 s_0 ) (* 1 s_1 x ) ) 0) )))
(assert (forall ((x Real) ) (=> (and (>= (+ (* 1024 1) (* 1 x ) ) 0) (>= (+ (* 1023 1) (* (- 1) x ) ) 0) ) (>= (+ (* 1 c_0 ) (* 1 c_1 x ) ) 0) )))
(assert (forall ((x Real) ) (=> (and (>= (+ (* (- 1) 1) (* (- 1) x ) ) 0) (>= (+ (* 5 1) (* 1 x ) ) 0) (>= (+ (* 35 1) (* (- 1) x ) ) 0) (>= (+ (* 1024 1) (* 1 x ) ) 0) (>= (+ (* 1023 1) (* (- 1) x ) ) 0) (>= (+ (* 1 s_0 ) (* 1 s_1 x ) ) 0) ) (>= (+ (* 1 s_0 ) (* (- 5) s_1 ) ) 0) )))
(assert (forall ((x Real) ) (=> (and (>= (+ (* (- 1) 1) (* (- 1) x ) ) 0) (>= (+ (* 5 1) (* 1 x ) ) 0) (>= (+ (* 35 1) (* (- 1) x ) ) 0) (>= (+ (* 1024 1) (* 1 x ) ) 0) (>= (+ (* 1023 1) (* (- 1) x ) ) 0) (>= (+ (* 1 s_0 ) (* 1 s_1 x ) ) 0) ) (>= (+ (* 1 c_0 ) (* (- 5) c_1 ) ) 0) )))
(assert (forall ((x Real) ) (=> (and (>= (+ (* (- 1) 1) (* (- 1) x ) ) 0) (>= (+ (* 5 1) (* 1 x ) ) 0) (>= (+ (* 35 1) (* (- 1) x ) ) 0) (>= (+ (* 1024 1) (* 1 x ) ) 0) (>= (+ (* 1023 1) (* (- 1) x ) ) 0) (>= (+ (* 1 s_0 ) (* 1 s_1 x ) ) 0) ) (>= (+ (* (- 1) 1) (* 5 c_1 ) (* 1 c_1 x ) ) 0) )))
(assert (forall ((x Real) ) (=> (and (>= (+ (* (- 31) 1) (* 1 x ) ) 0) (>= (* 1 x ) 0) (>= (+ (* 5 1) (* 1 x ) ) 0) (>= (+ (* 35 1) (* (- 1) x ) ) 0) (>= (+ (* (- 1) 1) (* (- 1) x ) ) 0) (>= (+ (* 1024 1) (* 1 x ) ) 0) (>= (+ (* 1023 1) (* (- 1) x ) ) 0) (>= (+ (* 1 s_0 ) (* 1 s_1 x ) ) 0) ) (>= (+ (* 1 s_0 ) (* 35 s_1 ) ) 0) )))
(assert (forall ((x Real) ) (=> (and (>= (+ (* (- 31) 1) (* 1 x ) ) 0) (>= (* 1 x ) 0) (>= (+ (* 5 1) (* 1 x ) ) 0) (>= (+ (* 35 1) (* (- 1) x ) ) 0) (>= (+ (* (- 1) 1) (* (- 1) x ) ) 0) (>= (+ (* 1024 1) (* 1 x ) ) 0) (>= (+ (* 1023 1) (* (- 1) x ) ) 0) (>= (+ (* 1 s_0 ) (* 1 s_1 x ) ) 0) ) (>= (+ (* 1 c_0 ) (* 35 c_1 ) ) 0) )))
(assert (forall ((x Real) ) (=> (and (>= (+ (* (- 31) 1) (* 1 x ) ) 0) (>= (* 1 x ) 0) (>= (+ (* 5 1) (* 1 x ) ) 0) (>= (+ (* 35 1) (* (- 1) x ) ) 0) (>= (+ (* (- 1) 1) (* (- 1) x ) ) 0) (>= (+ (* 1024 1) (* 1 x ) ) 0) (>= (+ (* 1023 1) (* (- 1) x ) ) 0) (>= (+ (* 1 s_0 ) (* 1 s_1 x ) ) 0) ) (>= (+ (* (- 1) 1) (* (- 35) c_1 ) (* 1 c_1 x ) ) 0) )))
(assert (forall ((x Real) ) (=> (and (>= (+ (* 30 1) (* (- 1) x ) ) 0) (>= (* 1 x ) 0) (>= (+ (* 5 1) (* 1 x ) ) 0) (>= (+ (* 35 1) (* (- 1) x ) ) 0) (>= (+ (* (- 1) 1) (* (- 1) x ) ) 0) (>= (+ (* 1024 1) (* 1 x ) ) 0) (>= (+ (* 1023 1) (* (- 1) x ) ) 0) (>= (+ (* 1 s_0 ) (* 1 s_1 x ) ) 0) ) (>= (+ (* 1 s_0 ) (* (- 1) s_1 ) (* 1 s_1 x ) ) 0) )))
(assert (forall ((x Real) ) (=> (and (>= (+ (* 30 1) (* (- 1) x ) ) 0) (>= (* 1 x ) 0) (>= (+ (* 5 1) (* 1 x ) ) 0) (>= (+ (* 35 1) (* (- 1) x ) ) 0) (>= (+ (* (- 1) 1) (* (- 1) x ) ) 0) (>= (+ (* 1024 1) (* 1 x ) ) 0) (>= (+ (* 1023 1) (* (- 1) x ) ) 0) (>= (+ (* 1 s_0 ) (* 1 s_1 x ) ) 0) ) (>= (+ (* 1 c_0 ) (* (- 1) c_1 ) (* 1 c_1 x ) ) 0) )))
(assert (forall ((x Real) ) (=> (and (>= (+ (* 30 1) (* (- 1) x ) ) 0) (>= (* 1 x ) 0) (>= (+ (* 5 1) (* 1 x ) ) 0) (>= (+ (* 35 1) (* (- 1) x ) ) 0) (>= (+ (* (- 1) 1) (* (- 1) x ) ) 0) (>= (+ (* 1024 1) (* 1 x ) ) 0) (>= (+ (* 1023 1) (* (- 1) x ) ) 0) (>= (+ (* 1 s_0 ) (* 1 s_1 x ) ) 0) ) (>= (+ (* (- 1) 1) (* 1 c_1 ) ) 0) )))
(assert (forall ((x Real) ) (=> (and (>= (+ (* (- 6) 1) (* (- 1) x ) ) 0) (>= (+ (* (- 1) 1) (* (- 1) x ) ) 0) (>= (+ (* 1024 1) (* 1 x ) ) 0) (>= (+ (* 1023 1) (* (- 1) x ) ) 0) (>= (+ (* 1 s_0 ) (* 1 s_1 x ) ) 0) ) (>= (* 1 s_0 ) 0) )))
(assert (forall ((x Real) ) (=> (and (>= (+ (* (- 6) 1) (* (- 1) x ) ) 0) (>= (+ (* (- 1) 1) (* (- 1) x ) ) 0) (>= (+ (* 1024 1) (* 1 x ) ) 0) (>= (+ (* 1023 1) (* (- 1) x ) ) 0) (>= (+ (* 1 s_0 ) (* 1 s_1 x ) ) 0) ) (>= (* 1 c_0 ) 0) )))
(assert (forall ((x Real) ) (=> (and (>= (+ (* (- 6) 1) (* (- 1) x ) ) 0) (>= (+ (* (- 1) 1) (* (- 1) x ) ) 0) (>= (+ (* 1024 1) (* 1 x ) ) 0) (>= (+ (* 1023 1) (* (- 1) x ) ) 0) (>= (+ (* 1 s_0 ) (* 1 s_1 x ) ) 0) ) (>= (+ (* (- 1) 1) (* 1 c_1 x ) ) 0) )))
(assert (forall ((x Real) ) (=> (and (>= (+ (* (- 36) 1) (* 1 x ) ) 0) (>= (+ (* (- 1) 1) (* (- 1) x ) ) 0) (>= (+ (* 1024 1) (* 1 x ) ) 0) (>= (+ (* 1023 1) (* (- 1) x ) ) 0) (>= (+ (* 1 s_0 ) (* 1 s_1 x ) ) 0) ) (>= (* 1 s_0 ) 0) )))
(assert (forall ((x Real) ) (=> (and (>= (+ (* (- 36) 1) (* 1 x ) ) 0) (>= (+ (* (- 1) 1) (* (- 1) x ) ) 0) (>= (+ (* 1024 1) (* 1 x ) ) 0) (>= (+ (* 1023 1) (* (- 1) x ) ) 0) (>= (+ (* 1 s_0 ) (* 1 s_1 x ) ) 0) ) (>= (* 1 c_0 ) 0) )))
(assert (forall ((x Real) ) (=> (and (>= (+ (* (- 36) 1) (* 1 x ) ) 0) (>= (+ (* (- 1) 1) (* (- 1) x ) ) 0) (>= (+ (* 1024 1) (* 1 x ) ) 0) (>= (+ (* 1023 1) (* (- 1) x ) ) 0) (>= (+ (* 1 s_0 ) (* 1 s_1 x ) ) 0) ) (>= (+ (* (- 1) 1) (* 1 c_1 x ) ) 0) )))
(assert (forall ((x Real) ) (=> (and (>= (+ (* (- 1) 1) (* (- 1) x ) ) 0) (>= (+ (* 5 1) (* 1 x ) ) 0) (>= (+ (* 35 1) (* (- 1) x ) ) 0) (>= (+ (* (- 1) 1) (* 1 x ) ) 0) (>= (+ (* 1024 1) (* 1 x ) ) 0) (>= (+ (* 1023 1) (* (- 1) x ) ) 0) (>= (+ (* 1 s_0 ) (* 1 s_1 x ) ) 0) ) (>= (+ (* 1 s_0 ) (* (- 5) s_1 ) ) 0) )))
(assert (forall ((x Real) ) (=> (and (>= (+ (* (- 1) 1) (* (- 1) x ) ) 0) (>= (+ (* 5 1) (* 1 x ) ) 0) (>= (+ (* 35 1) (* (- 1) x ) ) 0) (>= (+ (* (- 1) 1) (* 1 x ) ) 0) (>= (+ (* 1024 1) (* 1 x ) ) 0) (>= (+ (* 1023 1) (* (- 1) x ) ) 0) (>= (+ (* 1 s_0 ) (* 1 s_1 x ) ) 0) ) (>= (+ (* 1 c_0 ) (* (- 5) c_1 ) ) 0) )))
(assert (forall ((x Real) ) (=> (and (>= (+ (* (- 1) 1) (* (- 1) x ) ) 0) (>= (+ (* 5 1) (* 1 x ) ) 0) (>= (+ (* 35 1) (* (- 1) x ) ) 0) (>= (+ (* (- 1) 1) (* 1 x ) ) 0) (>= (+ (* 1024 1) (* 1 x ) ) 0) (>= (+ (* 1023 1) (* (- 1) x ) ) 0) (>= (+ (* 1 s_0 ) (* 1 s_1 x ) ) 0) ) (>= (+ (* (- 1) 1) (* 5 c_1 ) (* 1 c_1 x ) ) 0) )))
(assert (forall ((x Real) ) (=> (and (>= (+ (* (- 31) 1) (* 1 x ) ) 0) (>= (* 1 x ) 0) (>= (+ (* 5 1) (* 1 x ) ) 0) (>= (+ (* 35 1) (* (- 1) x ) ) 0) (>= (+ (* (- 1) 1) (* 1 x ) ) 0) (>= (+ (* 1024 1) (* 1 x ) ) 0) (>= (+ (* 1023 1) (* (- 1) x ) ) 0) (>= (+ (* 1 s_0 ) (* 1 s_1 x ) ) 0) ) (>= (+ (* 1 s_0 ) (* 35 s_1 ) ) 0) )))
(assert (forall ((x Real) ) (=> (and (>= (+ (* (- 31) 1) (* 1 x ) ) 0) (>= (* 1 x ) 0) (>= (+ (* 5 1) (* 1 x ) ) 0) (>= (+ (* 35 1) (* (- 1) x ) ) 0) (>= (+ (* (- 1) 1) (* 1 x ) ) 0) (>= (+ (* 1024 1) (* 1 x ) ) 0) (>= (+ (* 1023 1) (* (- 1) x ) ) 0) (>= (+ (* 1 s_0 ) (* 1 s_1 x ) ) 0) ) (>= (+ (* 1 c_0 ) (* 35 c_1 ) ) 0) )))
(assert (forall ((x Real) ) (=> (and (>= (+ (* (- 31) 1) (* 1 x ) ) 0) (>= (* 1 x ) 0) (>= (+ (* 5 1) (* 1 x ) ) 0) (>= (+ (* 35 1) (* (- 1) x ) ) 0) (>= (+ (* (- 1) 1) (* 1 x ) ) 0) (>= (+ (* 1024 1) (* 1 x ) ) 0) (>= (+ (* 1023 1) (* (- 1) x ) ) 0) (>= (+ (* 1 s_0 ) (* 1 s_1 x ) ) 0) ) (>= (+ (* (- 1) 1) (* (- 35) c_1 ) (* 1 c_1 x ) ) 0) )))
(assert (forall ((x Real) ) (=> (and (>= (+ (* 30 1) (* (- 1) x ) ) 0) (>= (* 1 x ) 0) (>= (+ (* 5 1) (* 1 x ) ) 0) (>= (+ (* 35 1) (* (- 1) x ) ) 0) (>= (+ (* (- 1) 1) (* 1 x ) ) 0) (>= (+ (* 1024 1) (* 1 x ) ) 0) (>= (+ (* 1023 1) (* (- 1) x ) ) 0) (>= (+ (* 1 s_0 ) (* 1 s_1 x ) ) 0) ) (>= (+ (* 1 s_0 ) (* (- 1) s_1 ) (* 1 s_1 x ) ) 0) )))
(assert (forall ((x Real) ) (=> (and (>= (+ (* 30 1) (* (- 1) x ) ) 0) (>= (* 1 x ) 0) (>= (+ (* 5 1) (* 1 x ) ) 0) (>= (+ (* 35 1) (* (- 1) x ) ) 0) (>= (+ (* (- 1) 1) (* 1 x ) ) 0) (>= (+ (* 1024 1) (* 1 x ) ) 0) (>= (+ (* 1023 1) (* (- 1) x ) ) 0) (>= (+ (* 1 s_0 ) (* 1 s_1 x ) ) 0) ) (>= (+ (* 1 c_0 ) (* (- 1) c_1 ) (* 1 c_1 x ) ) 0) )))
(assert (forall ((x Real) ) (=> (and (>= (+ (* 30 1) (* (- 1) x ) ) 0) (>= (* 1 x ) 0) (>= (+ (* 5 1) (* 1 x ) ) 0) (>= (+ (* 35 1) (* (- 1) x ) ) 0) (>= (+ (* (- 1) 1) (* 1 x ) ) 0) (>= (+ (* 1024 1) (* 1 x ) ) 0) (>= (+ (* 1023 1) (* (- 1) x ) ) 0) (>= (+ (* 1 s_0 ) (* 1 s_1 x ) ) 0) ) (>= (+ (* (- 1) 1) (* 1 c_1 ) ) 0) )))
(assert (forall ((x Real) ) (=> (and (>= (+ (* (- 6) 1) (* (- 1) x ) ) 0) (>= (+ (* (- 1) 1) (* 1 x ) ) 0) (>= (+ (* 1024 1) (* 1 x ) ) 0) (>= (+ (* 1023 1) (* (- 1) x ) ) 0) (>= (+ (* 1 s_0 ) (* 1 s_1 x ) ) 0) ) (>= (* 1 s_0 ) 0) )))
(assert (forall ((x Real) ) (=> (and (>= (+ (* (- 6) 1) (* (- 1) x ) ) 0) (>= (+ (* (- 1) 1) (* 1 x ) ) 0) (>= (+ (* 1024 1) (* 1 x ) ) 0) (>= (+ (* 1023 1) (* (- 1) x ) ) 0) (>= (+ (* 1 s_0 ) (* 1 s_1 x ) ) 0) ) (>= (* 1 c_0 ) 0) )))
(assert (forall ((x Real) ) (=> (and (>= (+ (* (- 6) 1) (* (- 1) x ) ) 0) (>= (+ (* (- 1) 1) (* 1 x ) ) 0) (>= (+ (* 1024 1) (* 1 x ) ) 0) (>= (+ (* 1023 1) (* (- 1) x ) ) 0) (>= (+ (* 1 s_0 ) (* 1 s_1 x ) ) 0) ) (>= (+ (* (- 1) 1) (* 1 c_1 x ) ) 0) )))
(assert (forall ((x Real) ) (=> (and (>= (+ (* (- 36) 1) (* 1 x ) ) 0) (>= (+ (* (- 1) 1) (* 1 x ) ) 0) (>= (+ (* 1024 1) (* 1 x ) ) 0) (>= (+ (* 1023 1) (* (- 1) x ) ) 0) (>= (+ (* 1 s_0 ) (* 1 s_1 x ) ) 0) ) (>= (* 1 s_0 ) 0) )))
(assert (forall ((x Real) ) (=> (and (>= (+ (* (- 36) 1) (* 1 x ) ) 0) (>= (+ (* (- 1) 1) (* 1 x ) ) 0) (>= (+ (* 1024 1) (* 1 x ) ) 0) (>= (+ (* 1023 1) (* (- 1) x ) ) 0) (>= (+ (* 1 s_0 ) (* 1 s_1 x ) ) 0) ) (>= (* 1 c_0 ) 0) )))
(assert (forall ((x Real) ) (=> (and (>= (+ (* (- 36) 1) (* 1 x ) ) 0) (>= (+ (* (- 1) 1) (* 1 x ) ) 0) (>= (+ (* 1024 1) (* 1 x ) ) 0) (>= (+ (* 1023 1) (* (- 1) x ) ) 0) (>= (+ (* 1 s_0 ) (* 1 s_1 x ) ) 0) ) (>= (+ (* (- 1) 1) (* 1 c_1 x ) ) 0) )))
(assert (forall ((x Real) ) (=> (and (>= (* 1 x ) 0) (>= (* (- 1) x ) 0) (>= (+ (* 1024 1) (* 1 x ) ) 0) (>= (+ (* 1023 1) (* (- 1) x ) ) 0) (>= (+ (* 1 s_0 ) (* 1 s_1 x ) ) 0) ) (>= (+ (* 1 s_2 ) (* 1 s_3 x ) ) 0) )))
(assert (forall ((x Real) ) (=> (and (>= (* 1 x ) 0) (>= (* (- 1) x ) 0) (>= (+ (* 1024 1) (* 1 x ) ) 0) (>= (+ (* 1023 1) (* (- 1) x ) ) 0) (>= (+ (* 1 s_0 ) (* 1 s_1 x ) ) 0) ) (>= (+ (* 1 c_2 ) (* 1 c_3 x ) ) 0) )))

(check-sat)
(get-model)
